(set-logic HORN)
(declare-fun invariant (Real Real Real Real Real Real Real Real Real Real Real Real Real Real Real Real Real Real Real Real Real Real Real Real Real Real Real Real Real Real Real Real Real Real Real Real Real Real Real Real Bool Bool Bool Bool Bool Bool Bool Bool Bool Real Real Real Real Real Real Real) Bool)

;; Initial state
(assert
  (forall ((state.cx!0!0 Real) (state.cx!0!1 Real) (state.cx!0!2 Real) (state.cx!0!3 Real) (state.cx!0!4 Real) (state.cx!1!0 Real) (state.cx!1!1 Real) (state.cx!1!2 Real) (state.cx!1!3 Real) (state.cx!1!4 Real) (state.cx!2!0 Real) (state.cx!2!1 Real) (state.cx!2!2 Real) (state.cx!2!3 Real) (state.cx!2!4 Real) (state.cx!3!0 Real) (state.cx!3!1 Real) (state.cx!3!2 Real) (state.cx!3!3 Real) (state.cx!3!4 Real) (state.cy!0!0 Real) (state.cy!0!1 Real) (state.cy!0!2 Real) (state.cy!0!3 Real) (state.cy!0!4 Real) (state.cy!1!0 Real) (state.cy!1!1 Real) (state.cy!1!2 Real) (state.cy!1!3 Real) (state.cy!1!4 Real) (state.cy!2!0 Real) (state.cy!2!1 Real) (state.cy!2!2 Real) (state.cy!2!3 Real) (state.cy!2!4 Real) (state.cy!3!0 Real) (state.cy!3!1 Real) (state.cy!3!2 Real) (state.cy!3!3 Real) (state.cy!3!4 Real) (state.good_p!0 Bool) (state.good_p!1 Bool) (state.good_p!2 Bool) (state.good_p!3 Bool) (state.good_r!0 Bool) (state.good_r!1 Bool) (state.good_r!2 Bool) (state.good_r!3 Bool) (state.good_r!4 Bool) (state.v!0 Real) (state.v!1 Real) (state.v!2 Real) (state.v!3 Real) (state.round Real) (state.source Real) (state.val Real))
    (=> (let ((l0 (= |state.round| 0))) (let ((l1 (= |state.cx!0!0| 0))) (let ((l2 (= |state.cx!0!1| 0))) (let ((l3 (= |state.cx!0!2| 0))) (let ((l4 (= |state.cx!0!3| 0))) (let ((l5 (= |state.cx!0!4| 0))) (let ((l6 (= |state.cx!1!0| 0))) (let ((l7 (= |state.cx!1!1| 0))) (let ((l8 (= |state.cx!1!2| 0))) (let ((l9 (= |state.cx!1!3| 0))) (let ((l10 (= |state.cx!1!4| 0))) (let ((l11 (= |state.cx!2!0| 0))) (let ((l12 (= |state.cx!2!1| 0))) (let ((l13 (= |state.cx!2!2| 0))) (let ((l14 (= |state.cx!2!3| 0))) (let ((l15 (= |state.cx!2!4| 0))) (let ((l16 (= |state.cx!3!0| 0))) (let ((l17 (= |state.cx!3!1| 0))) (let ((l18 (= |state.cx!3!2| 0))) (let ((l19 (= |state.cx!3!3| 0))) (let ((l20 (= |state.cx!3!4| 0))) (let ((l21 (= |state.cy!0!0| 0))) (let ((l22 (= |state.cy!0!1| 0))) (let ((l23 (= |state.cy!0!2| 0))) (let ((l24 (= |state.cy!0!3| 0))) (let ((l25 (= |state.cy!0!4| 0))) (let ((l26 (= |state.cy!1!0| 0))) (let ((l27 (= |state.cy!1!1| 0))) (let ((l28 (= |state.cy!1!2| 0))) (let ((l29 (= |state.cy!1!3| 0))) (let ((l30 (= |state.cy!1!4| 0))) (let ((l31 (= |state.cy!2!0| 0))) (let ((l32 (= |state.cy!2!1| 0))) (let ((l33 (= |state.cy!2!2| 0))) (let ((l34 (= |state.cy!2!3| 0))) (let ((l35 (= |state.cy!2!4| 0))) (let ((l36 (= |state.cy!3!0| 0))) (let ((l37 (= |state.cy!3!1| 0))) (let ((l38 (= |state.cy!3!2| 0))) (let ((l39 (= |state.cy!3!3| 0))) (let ((l40 (= |state.cy!3!4| 0))) (let ((l41 (= |state.source| 1))) (let ((l42 (= |state.source| 2))) (let ((l43 (= |state.source| 3))) (let ((l44 (= |state.source| 4))) (let ((l45 (or l41 l42 l43 l44))) (let ((l46 (= |state.val| 0))) (let ((l47 (not l46))) (let ((l48 (and |state.good_p!0| |state.good_p!1| |state.good_p!2| |state.good_p!3|))) (let ((l49 (not |state.good_r!0|))) (let ((l50 (and l49 |state.good_r!1| |state.good_r!2| |state.good_r!3| |state.good_r!4|))) (let ((l51 (not |state.good_r!1|))) (let ((l52 (and l51 |state.good_r!0| |state.good_r!2| |state.good_r!3| |state.good_r!4|))) (let ((l53 (not |state.good_r!2|))) (let ((l54 (and l53 |state.good_r!0| |state.good_r!1| |state.good_r!3| |state.good_r!4|))) (let ((l55 (not |state.good_r!3|))) (let ((l56 (and l55 |state.good_r!0| |state.good_r!1| |state.good_r!2| |state.good_r!4|))) (let ((l57 (not |state.good_r!4|))) (let ((l58 (and l57 |state.good_r!0| |state.good_r!1| |state.good_r!2| |state.good_r!3|))) (let ((l59 (or l50 l52 l54 l56 l58))) (let ((l60 (and l0 l1 l2 l3 l4 l5 l6 l7 l8 l9 l10 l11 l12 l13 l14 l15 l16 l17 l18 l19 l20 l21 l22 l23 l24 l25 l26 l27 l28 l29 l30 l31 l32 l33 l34 l35 l36 l37 l38 l39 l40 l45 l47 l48 l59))) l60)))))))))))))))))))))))))))))))))))))))))))))))))))))))))))))
        (invariant state.cx!0!0 state.cx!0!1 state.cx!0!2 state.cx!0!3 state.cx!0!4 state.cx!1!0 state.cx!1!1 state.cx!1!2 state.cx!1!3 state.cx!1!4 state.cx!2!0 state.cx!2!1 state.cx!2!2 state.cx!2!3 state.cx!2!4 state.cx!3!0 state.cx!3!1 state.cx!3!2 state.cx!3!3 state.cx!3!4 state.cy!0!0 state.cy!0!1 state.cy!0!2 state.cy!0!3 state.cy!0!4 state.cy!1!0 state.cy!1!1 state.cy!1!2 state.cy!1!3 state.cy!1!4 state.cy!2!0 state.cy!2!1 state.cy!2!2 state.cy!2!3 state.cy!2!4 state.cy!3!0 state.cy!3!1 state.cy!3!2 state.cy!3!3 state.cy!3!4 state.good_p!0 state.good_p!1 state.good_p!2 state.good_p!3 state.good_r!0 state.good_r!1 state.good_r!2 state.good_r!3 state.good_r!4 state.v!0 state.v!1 state.v!2 state.v!3 state.round state.source state.val))
  )
)

;; Transition relation
(assert
  (forall ((state.cx!0!0 Real) (next.cx!0!0 Real) (state.cx!0!1 Real) (next.cx!0!1 Real) (state.cx!0!2 Real) (next.cx!0!2 Real) (state.cx!0!3 Real) (next.cx!0!3 Real) (state.cx!0!4 Real) (next.cx!0!4 Real) (state.cx!1!0 Real) (next.cx!1!0 Real) (state.cx!1!1 Real) (next.cx!1!1 Real) (state.cx!1!2 Real) (next.cx!1!2 Real) (state.cx!1!3 Real) (next.cx!1!3 Real) (state.cx!1!4 Real) (next.cx!1!4 Real) (state.cx!2!0 Real) (next.cx!2!0 Real) (state.cx!2!1 Real) (next.cx!2!1 Real) (state.cx!2!2 Real) (next.cx!2!2 Real) (state.cx!2!3 Real) (next.cx!2!3 Real) (state.cx!2!4 Real) (next.cx!2!4 Real) (state.cx!3!0 Real) (next.cx!3!0 Real) (state.cx!3!1 Real) (next.cx!3!1 Real) (state.cx!3!2 Real) (next.cx!3!2 Real) (state.cx!3!3 Real) (next.cx!3!3 Real) (state.cx!3!4 Real) (next.cx!3!4 Real) (state.cy!0!0 Real) (next.cy!0!0 Real) (state.cy!0!1 Real) (next.cy!0!1 Real) (state.cy!0!2 Real) (next.cy!0!2 Real) (state.cy!0!3 Real) (next.cy!0!3 Real) (state.cy!0!4 Real) (next.cy!0!4 Real) (state.cy!1!0 Real) (next.cy!1!0 Real) (state.cy!1!1 Real) (next.cy!1!1 Real) (state.cy!1!2 Real) (next.cy!1!2 Real) (state.cy!1!3 Real) (next.cy!1!3 Real) (state.cy!1!4 Real) (next.cy!1!4 Real) (state.cy!2!0 Real) (next.cy!2!0 Real) (state.cy!2!1 Real) (next.cy!2!1 Real) (state.cy!2!2 Real) (next.cy!2!2 Real) (state.cy!2!3 Real) (next.cy!2!3 Real) (state.cy!2!4 Real) (next.cy!2!4 Real) (state.cy!3!0 Real) (next.cy!3!0 Real) (state.cy!3!1 Real) (next.cy!3!1 Real) (state.cy!3!2 Real) (next.cy!3!2 Real) (state.cy!3!3 Real) (next.cy!3!3 Real) (state.cy!3!4 Real) (next.cy!3!4 Real) (state.good_p!0 Bool) (next.good_p!0 Bool) (state.good_p!1 Bool) (next.good_p!1 Bool) (state.good_p!2 Bool) (next.good_p!2 Bool) (state.good_p!3 Bool) (next.good_p!3 Bool) (state.good_r!0 Bool) (next.good_r!0 Bool) (state.good_r!1 Bool) (next.good_r!1 Bool) (state.good_r!2 Bool) (next.good_r!2 Bool) (state.good_r!3 Bool) (next.good_r!3 Bool) (state.good_r!4 Bool) (next.good_r!4 Bool) (state.v!0 Real) (next.v!0 Real) (state.v!1 Real) (next.v!1 Real) (state.v!2 Real) (next.v!2 Real) (state.v!3 Real) (next.v!3 Real) (state.round Real) (next.round Real) (state.source Real) (next.source Real) (state.val Real) (next.val Real))
    (=> (and (invariant state.cx!0!0 state.cx!0!1 state.cx!0!2 state.cx!0!3 state.cx!0!4 state.cx!1!0 state.cx!1!1 state.cx!1!2 state.cx!1!3 state.cx!1!4 state.cx!2!0 state.cx!2!1 state.cx!2!2 state.cx!2!3 state.cx!2!4 state.cx!3!0 state.cx!3!1 state.cx!3!2 state.cx!3!3 state.cx!3!4 state.cy!0!0 state.cy!0!1 state.cy!0!2 state.cy!0!3 state.cy!0!4 state.cy!1!0 state.cy!1!1 state.cy!1!2 state.cy!1!3 state.cy!1!4 state.cy!2!0 state.cy!2!1 state.cy!2!2 state.cy!2!3 state.cy!2!4 state.cy!3!0 state.cy!3!1 state.cy!3!2 state.cy!3!3 state.cy!3!4 state.good_p!0 state.good_p!1 state.good_p!2 state.good_p!3 state.good_r!0 state.good_r!1 state.good_r!2 state.good_r!3 state.good_r!4 state.v!0 state.v!1 state.v!2 state.v!3 state.round state.source state.val)
             (let ((l0 (= |next.source| |state.source|))) (let ((l1 (= |next.val| |state.val|))) (let ((l2 (= |state.round| 0))) (let ((l3 (not |state.good_p!0|))) (let ((l4 (= 1 |state.source|))) (let ((l5 (not l4))) (let ((l6 (= |next.cx!0!0| |state.val|))) (let ((l7 (= |next.cx!0!1| |state.val|))) (let ((l8 (= |next.cx!0!2| |state.val|))) (let ((l9 (= |next.cx!0!3| |state.val|))) (let ((l10 (= |next.cx!0!4| |state.val|))) (let ((l11 (and l6 l7 l8 l9 l10))) (let ((l12 (or l3 l5 l11))) (let ((l13 (not |state.good_p!1|))) (let ((l14 (= 2 |state.source|))) (let ((l15 (not l14))) (let ((l16 (= |next.cx!1!0| |state.val|))) (let ((l17 (= |next.cx!1!1| |state.val|))) (let ((l18 (= |next.cx!1!2| |state.val|))) (let ((l19 (= |next.cx!1!3| |state.val|))) (let ((l20 (= |next.cx!1!4| |state.val|))) (let ((l21 (and l16 l17 l18 l19 l20))) (let ((l22 (or l13 l15 l21))) (let ((l23 (not |state.good_p!2|))) (let ((l24 (= 3 |state.source|))) (let ((l25 (not l24))) (let ((l26 (= |next.cx!2!0| |state.val|))) (let ((l27 (= |next.cx!2!1| |state.val|))) (let ((l28 (= |next.cx!2!2| |state.val|))) (let ((l29 (= |next.cx!2!3| |state.val|))) (let ((l30 (= |next.cx!2!4| |state.val|))) (let ((l31 (and l26 l27 l28 l29 l30))) (let ((l32 (or l23 l25 l31))) (let ((l33 (not |state.good_p!3|))) (let ((l34 (= 4 |state.source|))) (let ((l35 (not l34))) (let ((l36 (= |next.cx!3!0| |state.val|))) (let ((l37 (= |next.cx!3!1| |state.val|))) (let ((l38 (= |next.cx!3!2| |state.val|))) (let ((l39 (= |next.cx!3!3| |state.val|))) (let ((l40 (= |next.cx!3!4| |state.val|))) (let ((l41 (and l36 l37 l38 l39 l40))) (let ((l42 (or l33 l35 l41))) (let ((l43 (= |next.cx!0!0| 0))) (let ((l44 (= |next.cx!0!1| 0))) (let ((l45 (= |next.cx!0!2| 0))) (let ((l46 (= |next.cx!0!3| 0))) (let ((l47 (= |next.cx!0!4| 0))) (let ((l48 (and l43 l44 l45 l46 l47))) (let ((l49 (or l3 l4 l48))) (let ((l50 (= |next.cx!1!0| 0))) (let ((l51 (= |next.cx!1!1| 0))) (let ((l52 (= |next.cx!1!2| 0))) (let ((l53 (= |next.cx!1!3| 0))) (let ((l54 (= |next.cx!1!4| 0))) (let ((l55 (and l50 l51 l52 l53 l54))) (let ((l56 (or l13 l14 l55))) (let ((l57 (= |next.cx!2!0| 0))) (let ((l58 (= |next.cx!2!1| 0))) (let ((l59 (= |next.cx!2!2| 0))) (let ((l60 (= |next.cx!2!3| 0))) (let ((l61 (= |next.cx!2!4| 0))) (let ((l62 (and l57 l58 l59 l60 l61))) (let ((l63 (or l23 l24 l62))) (let ((l64 (= |next.cx!3!0| 0))) (let ((l65 (= |next.cx!3!1| 0))) (let ((l66 (= |next.cx!3!2| 0))) (let ((l67 (= |next.cx!3!3| 0))) (let ((l68 (= |next.cx!3!4| 0))) (let ((l69 (and l64 l65 l66 l67 l68))) (let ((l70 (or l33 l34 l69))) (let ((l71 (and l12 l22 l32 l42 l49 l56 l63 l70))) (let ((l72 (= |next.round| 1))) (let ((l73 (= |next.cy!0!0| |state.cy!0!0|))) (let ((l74 (= |next.cy!0!1| |state.cy!0!1|))) (let ((l75 (= |next.cy!0!2| |state.cy!0!2|))) (let ((l76 (= |next.cy!0!3| |state.cy!0!3|))) (let ((l77 (= |next.cy!0!4| |state.cy!0!4|))) (let ((l78 (= |next.cy!1!0| |state.cy!1!0|))) (let ((l79 (= |next.cy!1!1| |state.cy!1!1|))) (let ((l80 (= |next.cy!1!2| |state.cy!1!2|))) (let ((l81 (= |next.cy!1!3| |state.cy!1!3|))) (let ((l82 (= |next.cy!1!4| |state.cy!1!4|))) (let ((l83 (= |next.cy!2!0| |state.cy!2!0|))) (let ((l84 (= |next.cy!2!1| |state.cy!2!1|))) (let ((l85 (= |next.cy!2!2| |state.cy!2!2|))) (let ((l86 (= |next.cy!2!3| |state.cy!2!3|))) (let ((l87 (= |next.cy!2!4| |state.cy!2!4|))) (let ((l88 (= |next.cy!3!0| |state.cy!3!0|))) (let ((l89 (= |next.cy!3!1| |state.cy!3!1|))) (let ((l90 (= |next.cy!3!2| |state.cy!3!2|))) (let ((l91 (= |next.cy!3!3| |state.cy!3!3|))) (let ((l92 (= |next.cy!3!4| |state.cy!3!4|))) (let ((l93 (and l73 l74 l75 l76 l77 l78 l79 l80 l81 l82 l83 l84 l85 l86 l87 l88 l89 l90 l91 l92))) (let ((l94 (= |next.good_p!0| |state.good_p!0|))) (let ((l95 (= |next.good_p!1| |state.good_p!1|))) (let ((l96 (= |next.good_p!2| |state.good_p!2|))) (let ((l97 (= |next.good_p!3| |state.good_p!3|))) (let ((l98 (and l94 l95 l96 l97))) (let ((l99 (= |next.good_r!0| |state.good_r!0|))) (let ((l100 (= |next.good_r!1| |state.good_r!1|))) (let ((l101 (= |next.good_r!2| |state.good_r!2|))) (let ((l102 (= |next.good_r!3| |state.good_r!3|))) (let ((l103 (= |next.good_r!4| |state.good_r!4|))) (let ((l104 (and l99 l100 l101 l102 l103))) (let ((l105 (= |next.v!0| |state.v!0|))) (let ((l106 (= |next.v!1| |state.v!1|))) (let ((l107 (= |next.v!2| |state.v!2|))) (let ((l108 (= |next.v!3| |state.v!3|))) (let ((l109 (and l105 l106 l107 l108))) (let ((l110 (and l2 l71 l72 l93 l98 l104 l109))) (let ((l111 (= |state.round| 1))) (let ((l112 (not |state.good_r!0|))) (let ((l113 (= |state.source| 4))) (let ((l114 (= |state.source| 3))) (let ((l115 (= |state.source| 2))) (let ((l116 (ite l115 |state.cx!1!0| |state.cx!0!0|))) (let ((l117 (ite l114 |state.cx!2!0| l116))) (let ((l118 (ite l113 |state.cx!3!0| l117))) (let ((l119 (= |next.cy!0!0| l118))) (let ((l120 (or l112 l119))) (let ((l121 (= |next.cy!1!0| l118))) (let ((l122 (or l112 l121))) (let ((l123 (= |next.cy!2!0| l118))) (let ((l124 (or l112 l123))) (let ((l125 (= |next.cy!3!0| l118))) (let ((l126 (or l112 l125))) (let ((l127 (not |state.good_r!1|))) (let ((l128 (ite l115 |state.cx!1!1| |state.cx!0!1|))) (let ((l129 (ite l114 |state.cx!2!1| l128))) (let ((l130 (ite l113 |state.cx!3!1| l129))) (let ((l131 (= |next.cy!0!1| l130))) (let ((l132 (or l127 l131))) (let ((l133 (= |next.cy!1!1| l130))) (let ((l134 (or l127 l133))) (let ((l135 (= |next.cy!2!1| l130))) (let ((l136 (or l127 l135))) (let ((l137 (= |next.cy!3!1| l130))) (let ((l138 (or l127 l137))) (let ((l139 (not |state.good_r!2|))) (let ((l140 (ite l115 |state.cx!1!2| |state.cx!0!2|))) (let ((l141 (ite l114 |state.cx!2!2| l140))) (let ((l142 (ite l113 |state.cx!3!2| l141))) (let ((l143 (= |next.cy!0!2| l142))) (let ((l144 (or l139 l143))) (let ((l145 (= |next.cy!1!2| l142))) (let ((l146 (or l139 l145))) (let ((l147 (= |next.cy!2!2| l142))) (let ((l148 (or l139 l147))) (let ((l149 (= |next.cy!3!2| l142))) (let ((l150 (or l139 l149))) (let ((l151 (not |state.good_r!3|))) (let ((l152 (ite l115 |state.cx!1!3| |state.cx!0!3|))) (let ((l153 (ite l114 |state.cx!2!3| l152))) (let ((l154 (ite l113 |state.cx!3!3| l153))) (let ((l155 (= |next.cy!0!3| l154))) (let ((l156 (or l151 l155))) (let ((l157 (= |next.cy!1!3| l154))) (let ((l158 (or l151 l157))) (let ((l159 (= |next.cy!2!3| l154))) (let ((l160 (or l151 l159))) (let ((l161 (= |next.cy!3!3| l154))) (let ((l162 (or l151 l161))) (let ((l163 (not |state.good_r!4|))) (let ((l164 (ite l115 |state.cx!1!4| |state.cx!0!4|))) (let ((l165 (ite l114 |state.cx!2!4| l164))) (let ((l166 (ite l113 |state.cx!3!4| l165))) (let ((l167 (= |next.cy!0!4| l166))) (let ((l168 (or l163 l167))) (let ((l169 (= |next.cy!1!4| l166))) (let ((l170 (or l163 l169))) (let ((l171 (= |next.cy!2!4| l166))) (let ((l172 (or l163 l171))) (let ((l173 (= |next.cy!3!4| l166))) (let ((l174 (or l163 l173))) (let ((l175 (and l120 l122 l124 l126 l132 l134 l136 l138 l144 l146 l148 l150 l156 l158 l160 l162 l168 l170 l172 l174))) (let ((l176 (= |next.round| 2))) (let ((l177 (= |next.cx!0!0| |state.cx!0!0|))) (let ((l178 (= |next.cx!0!1| |state.cx!0!1|))) (let ((l179 (= |next.cx!0!2| |state.cx!0!2|))) (let ((l180 (= |next.cx!0!3| |state.cx!0!3|))) (let ((l181 (= |next.cx!0!4| |state.cx!0!4|))) (let ((l182 (= |next.cx!1!0| |state.cx!1!0|))) (let ((l183 (= |next.cx!1!1| |state.cx!1!1|))) (let ((l184 (= |next.cx!1!2| |state.cx!1!2|))) (let ((l185 (= |next.cx!1!3| |state.cx!1!3|))) (let ((l186 (= |next.cx!1!4| |state.cx!1!4|))) (let ((l187 (= |next.cx!2!0| |state.cx!2!0|))) (let ((l188 (= |next.cx!2!1| |state.cx!2!1|))) (let ((l189 (= |next.cx!2!2| |state.cx!2!2|))) (let ((l190 (= |next.cx!2!3| |state.cx!2!3|))) (let ((l191 (= |next.cx!2!4| |state.cx!2!4|))) (let ((l192 (= |next.cx!3!0| |state.cx!3!0|))) (let ((l193 (= |next.cx!3!1| |state.cx!3!1|))) (let ((l194 (= |next.cx!3!2| |state.cx!3!2|))) (let ((l195 (= |next.cx!3!3| |state.cx!3!3|))) (let ((l196 (= |next.cx!3!4| |state.cx!3!4|))) (let ((l197 (and l177 l178 l179 l180 l181 l182 l183 l184 l185 l186 l187 l188 l189 l190 l191 l192 l193 l194 l195 l196))) (let ((l198 (and l111 l175 l176 l197 l98 l104 l109))) (let ((l199 (= |state.round| 2))) (let ((l200 (= |state.cy!0!3| |state.cy!0!4|))) (let ((l201 (ite l200 2 0))) (let ((l202 (= l201 0))) (let ((l203 (= |state.cy!0!2| |state.cy!0!4|))) (let ((l204 (+ l201 1))) (let ((l205 (- l201 1))) (let ((l206 (ite l203 l204 l205))) (let ((l207 (ite l202 1 l206))) (let ((l208 (= l207 0))) (let ((l209 (ite l202 |state.cy!0!2| |state.cy!0!4|))) (let ((l210 (= |state.cy!0!1| l209))) (let ((l211 (+ l207 1))) (let ((l212 (- l207 1))) (let ((l213 (ite l210 l211 l212))) (let ((l214 (ite l208 1 l213))) (let ((l215 (= l214 0))) (let ((l216 (ite l208 |state.cy!0!1| l209))) (let ((l217 (ite l215 |state.cy!0!0| l216))) (let ((l218 (= |state.cy!0!4| l217))) (let ((l219 (ite l218 2 3))) (let ((l220 (= l219 0))) (let ((l221 (= |state.cy!0!3| l217))) (let ((l222 (- l219 1))) (let ((l223 (ite l221 l222 l219))) (let ((l224 (= l223 0))) (let ((l225 (= |state.cy!0!2| l217))) (let ((l226 (- l223 1))) (let ((l227 (ite l225 l226 l223))) (let ((l228 (= l227 0))) (let ((l229 (= |state.cy!0!1| l217))) (let ((l230 (- l227 1))) (let ((l231 (ite l229 l230 l227))) (let ((l232 (= l231 0))) (let ((l233 (= |state.cy!0!0| l217))) (let ((l234 (- l231 1))) (let ((l235 (ite l233 l234 l231))) (let ((l236 (= l235 0))) (let ((l237 (or l220 l224 l228 l232 l236))) (let ((l238 (ite l237 l217 0))) (let ((l239 (= |next.v!0| l238))) (let ((l240 (or l3 l239))) (let ((l241 (= |state.cy!1!3| |state.cy!1!4|))) (let ((l242 (ite l241 2 0))) (let ((l243 (= l242 0))) (let ((l244 (= |state.cy!1!2| |state.cy!1!4|))) (let ((l245 (+ l242 1))) (let ((l246 (- l242 1))) (let ((l247 (ite l244 l245 l246))) (let ((l248 (ite l243 1 l247))) (let ((l249 (= l248 0))) (let ((l250 (ite l243 |state.cy!1!2| |state.cy!1!4|))) (let ((l251 (= |state.cy!1!1| l250))) (let ((l252 (+ l248 1))) (let ((l253 (- l248 1))) (let ((l254 (ite l251 l252 l253))) (let ((l255 (ite l249 1 l254))) (let ((l256 (= l255 0))) (let ((l257 (ite l249 |state.cy!1!1| l250))) (let ((l258 (ite l256 |state.cy!1!0| l257))) (let ((l259 (= |state.cy!1!4| l258))) (let ((l260 (ite l259 2 3))) (let ((l261 (= l260 0))) (let ((l262 (= |state.cy!1!3| l258))) (let ((l263 (- l260 1))) (let ((l264 (ite l262 l263 l260))) (let ((l265 (= l264 0))) (let ((l266 (= |state.cy!1!2| l258))) (let ((l267 (- l264 1))) (let ((l268 (ite l266 l267 l264))) (let ((l269 (= l268 0))) (let ((l270 (= |state.cy!1!1| l258))) (let ((l271 (- l268 1))) (let ((l272 (ite l270 l271 l268))) (let ((l273 (= l272 0))) (let ((l274 (= |state.cy!1!0| l258))) (let ((l275 (- l272 1))) (let ((l276 (ite l274 l275 l272))) (let ((l277 (= l276 0))) (let ((l278 (or l261 l265 l269 l273 l277))) (let ((l279 (ite l278 l258 0))) (let ((l280 (= |next.v!1| l279))) (let ((l281 (or l13 l280))) (let ((l282 (= |state.cy!2!3| |state.cy!2!4|))) (let ((l283 (ite l282 2 0))) (let ((l284 (= l283 0))) (let ((l285 (= |state.cy!2!2| |state.cy!2!4|))) (let ((l286 (+ l283 1))) (let ((l287 (- l283 1))) (let ((l288 (ite l285 l286 l287))) (let ((l289 (ite l284 1 l288))) (let ((l290 (= l289 0))) (let ((l291 (ite l284 |state.cy!2!2| |state.cy!2!4|))) (let ((l292 (= |state.cy!2!1| l291))) (let ((l293 (+ l289 1))) (let ((l294 (- l289 1))) (let ((l295 (ite l292 l293 l294))) (let ((l296 (ite l290 1 l295))) (let ((l297 (= l296 0))) (let ((l298 (ite l290 |state.cy!2!1| l291))) (let ((l299 (ite l297 |state.cy!2!0| l298))) (let ((l300 (= |state.cy!2!4| l299))) (let ((l301 (ite l300 2 3))) (let ((l302 (= l301 0))) (let ((l303 (= |state.cy!2!3| l299))) (let ((l304 (- l301 1))) (let ((l305 (ite l303 l304 l301))) (let ((l306 (= l305 0))) (let ((l307 (= |state.cy!2!2| l299))) (let ((l308 (- l305 1))) (let ((l309 (ite l307 l308 l305))) (let ((l310 (= l309 0))) (let ((l311 (= |state.cy!2!1| l299))) (let ((l312 (- l309 1))) (let ((l313 (ite l311 l312 l309))) (let ((l314 (= l313 0))) (let ((l315 (= |state.cy!2!0| l299))) (let ((l316 (- l313 1))) (let ((l317 (ite l315 l316 l313))) (let ((l318 (= l317 0))) (let ((l319 (or l302 l306 l310 l314 l318))) (let ((l320 (ite l319 l299 0))) (let ((l321 (= |next.v!2| l320))) (let ((l322 (or l23 l321))) (let ((l323 (= |state.cy!3!3| |state.cy!3!4|))) (let ((l324 (ite l323 2 0))) (let ((l325 (= l324 0))) (let ((l326 (= |state.cy!3!2| |state.cy!3!4|))) (let ((l327 (+ l324 1))) (let ((l328 (- l324 1))) (let ((l329 (ite l326 l327 l328))) (let ((l330 (ite l325 1 l329))) (let ((l331 (= l330 0))) (let ((l332 (ite l325 |state.cy!3!2| |state.cy!3!4|))) (let ((l333 (= |state.cy!3!1| l332))) (let ((l334 (+ l330 1))) (let ((l335 (- l330 1))) (let ((l336 (ite l333 l334 l335))) (let ((l337 (ite l331 1 l336))) (let ((l338 (= l337 0))) (let ((l339 (ite l331 |state.cy!3!1| l332))) (let ((l340 (ite l338 |state.cy!3!0| l339))) (let ((l341 (= |state.cy!3!4| l340))) (let ((l342 (ite l341 2 3))) (let ((l343 (= l342 0))) (let ((l344 (= |state.cy!3!3| l340))) (let ((l345 (- l342 1))) (let ((l346 (ite l344 l345 l342))) (let ((l347 (= l346 0))) (let ((l348 (= |state.cy!3!2| l340))) (let ((l349 (- l346 1))) (let ((l350 (ite l348 l349 l346))) (let ((l351 (= l350 0))) (let ((l352 (= |state.cy!3!1| l340))) (let ((l353 (- l350 1))) (let ((l354 (ite l352 l353 l350))) (let ((l355 (= l354 0))) (let ((l356 (= |state.cy!3!0| l340))) (let ((l357 (- l354 1))) (let ((l358 (ite l356 l357 l354))) (let ((l359 (= l358 0))) (let ((l360 (or l343 l347 l351 l355 l359))) (let ((l361 (ite l360 l340 0))) (let ((l362 (= |next.v!3| l361))) (let ((l363 (or l33 l362))) (let ((l364 (and l240 l281 l322 l363))) (let ((l365 (= |next.round| 3))) (let ((l366 (and l199 l364 l365 l197 l93 l98 l104))) (let ((l367 (= |state.round| 3))) (let ((l368 (= |next.round| |state.round|))) (let ((l369 (and l367 l197 l93 l98 l104 l368 l109))) (let ((l370 (or l110 l198 l366 l369))) (let ((l371 (and l0 l1 l370))) l371))))))))))))))))))))))))))))))))))))))))))))))))))))))))))))))))))))))))))))))))))))))))))))))))))))))))))))))))))))))))))))))))))))))))))))))))))))))))))))))))))))))))))))))))))))))))))))))))))))))))))))))))))))))))))))))))))))))))))))))))))))))))))))))))))))))))))))))))))))))))))))))))))))))))))))))))))))))))))))))))))))))))))))))))))))))))))))))))))))))))))))))))))))
        )
        (invariant next.cx!0!0 next.cx!0!1 next.cx!0!2 next.cx!0!3 next.cx!0!4 next.cx!1!0 next.cx!1!1 next.cx!1!2 next.cx!1!3 next.cx!1!4 next.cx!2!0 next.cx!2!1 next.cx!2!2 next.cx!2!3 next.cx!2!4 next.cx!3!0 next.cx!3!1 next.cx!3!2 next.cx!3!3 next.cx!3!4 next.cy!0!0 next.cy!0!1 next.cy!0!2 next.cy!0!3 next.cy!0!4 next.cy!1!0 next.cy!1!1 next.cy!1!2 next.cy!1!3 next.cy!1!4 next.cy!2!0 next.cy!2!1 next.cy!2!2 next.cy!2!3 next.cy!2!4 next.cy!3!0 next.cy!3!1 next.cy!3!2 next.cy!3!3 next.cy!3!4 next.good_p!0 next.good_p!1 next.good_p!2 next.good_p!3 next.good_r!0 next.good_r!1 next.good_r!2 next.good_r!3 next.good_r!4 next.v!0 next.v!1 next.v!2 next.v!3 next.round next.source next.val)
    )
  )
)

;; Property
(assert
  (forall ((state.cx!0!0 Real) (state.cx!0!1 Real) (state.cx!0!2 Real) (state.cx!0!3 Real) (state.cx!0!4 Real) (state.cx!1!0 Real) (state.cx!1!1 Real) (state.cx!1!2 Real) (state.cx!1!3 Real) (state.cx!1!4 Real) (state.cx!2!0 Real) (state.cx!2!1 Real) (state.cx!2!2 Real) (state.cx!2!3 Real) (state.cx!2!4 Real) (state.cx!3!0 Real) (state.cx!3!1 Real) (state.cx!3!2 Real) (state.cx!3!3 Real) (state.cx!3!4 Real) (state.cy!0!0 Real) (state.cy!0!1 Real) (state.cy!0!2 Real) (state.cy!0!3 Real) (state.cy!0!4 Real) (state.cy!1!0 Real) (state.cy!1!1 Real) (state.cy!1!2 Real) (state.cy!1!3 Real) (state.cy!1!4 Real) (state.cy!2!0 Real) (state.cy!2!1 Real) (state.cy!2!2 Real) (state.cy!2!3 Real) (state.cy!2!4 Real) (state.cy!3!0 Real) (state.cy!3!1 Real) (state.cy!3!2 Real) (state.cy!3!3 Real) (state.cy!3!4 Real) (state.good_p!0 Bool) (state.good_p!1 Bool) (state.good_p!2 Bool) (state.good_p!3 Bool) (state.good_r!0 Bool) (state.good_r!1 Bool) (state.good_r!2 Bool) (state.good_r!3 Bool) (state.good_r!4 Bool) (state.v!0 Real) (state.v!1 Real) (state.v!2 Real) (state.v!3 Real) (state.round Real) (state.source Real) (state.val Real))
    (=> (invariant state.cx!0!0 state.cx!0!1 state.cx!0!2 state.cx!0!3 state.cx!0!4 state.cx!1!0 state.cx!1!1 state.cx!1!2 state.cx!1!3 state.cx!1!4 state.cx!2!0 state.cx!2!1 state.cx!2!2 state.cx!2!3 state.cx!2!4 state.cx!3!0 state.cx!3!1 state.cx!3!2 state.cx!3!3 state.cx!3!4 state.cy!0!0 state.cy!0!1 state.cy!0!2 state.cy!0!3 state.cy!0!4 state.cy!1!0 state.cy!1!1 state.cy!1!2 state.cy!1!3 state.cy!1!4 state.cy!2!0 state.cy!2!1 state.cy!2!2 state.cy!2!3 state.cy!2!4 state.cy!3!0 state.cy!3!1 state.cy!3!2 state.cy!3!3 state.cy!3!4 state.good_p!0 state.good_p!1 state.good_p!2 state.good_p!3 state.good_r!0 state.good_r!1 state.good_r!2 state.good_r!3 state.good_r!4 state.v!0 state.v!1 state.v!2 state.v!3 state.round state.source state.val)
        (let ((l0 (= |state.source| 4))) (let ((l1 (= |state.source| 3))) (let ((l2 (= |state.source| 2))) (let ((l3 (ite l2 |state.good_p!1| |state.good_p!0|))) (let ((l4 (ite l1 |state.good_p!2| l3))) (let ((l5 (ite l0 |state.good_p!3| l4))) (let ((l6 (not l5))) (let ((l7 (< |state.round| 3))) (let ((l8 (not |state.good_p!0|))) (let ((l9 (= |state.v!0| |state.val|))) (let ((l10 (or l8 l9))) (let ((l11 (not |state.good_p!1|))) (let ((l12 (= |state.v!1| |state.val|))) (let ((l13 (or l11 l12))) (let ((l14 (not |state.good_p!2|))) (let ((l15 (= |state.v!2| |state.val|))) (let ((l16 (or l14 l15))) (let ((l17 (not |state.good_p!3|))) (let ((l18 (= |state.v!3| |state.val|))) (let ((l19 (or l17 l18))) (let ((l20 (and l10 l13 l16 l19))) (let ((l21 (or l6 l7 l20))) l21))))))))))))))))))))))
    )
  )
)

;; Check the property
(check-sat)
